SDVRP instances/custom_instances/p02_18_splitx10_0.vrp
NAME:p02_18_splitx10_
BEST_KNOWN: 0
COMMENT: 0
DIMENSION: 353
CAPACITY: 1400
EDGE_WEIGHT_FORMAT: FUNCTION
EDGE_WEIGHT_TYPE: EXACT_2D
NODE_COORD_SECTION
1 0.00000 0.00000
2 27 47
3 27 47
4 27 47
5 27 47
6 27 47
7 27 47
8 -5 25
9 -5 25
10 -5 25
11 -5 25
12 -5 25
13 -5 25
14 -5 25
15 41 -35
16 41 -35
17 41 -35
18 41 -35
19 41 -35
20 41 -35
21 41 -35
22 41 -35
23 -49 23
24 -49 23
25 48 -20
26 48 -20
27 48 -20
28 48 -20
29 48 -20
30 48 -20
31 35 -35
32 35 -35
33 35 -35
34 35 -35
35 35 -35
36 35 -35
37 49 24
38 49 24
39 49 24
40 49 24
41 12 8
42 12 8
43 12 8
44 12 8
45 12 8
46 12 8
47 -7 10
48 21 -19
49 21 -19
50 21 -19
51 21 -19
52 21 -19
53 21 -19
54 21 -19
55 9 15
56 9 15
57 9 15
58 9 15
59 13 6
60 13 6
61 13 6
62 13 6
63 -13 8
64 -13 8
65 -13 8
66 -13 8
67 -13 8
68 -13 8
69 -13 8
70 -45 -30
71 -45 -30
72 36 -19
73 36 -19
74 36 -19
75 -4 11
76 -4 11
77 -4 11
78 -4 11
79 45 48
80 45 48
81 45 48
82 45 48
83 45 48
84 -49 7
85 -49 7
86 -49 7
87 -49 7
88 -49 7
89 -49 7
90 27 12
91 27 12
92 27 12
93 27 12
94 -2 32
95 -2 32
96 -2 32
97 -2 32
98 -2 32
99 -2 32
100 -2 32
101 -2 32
102 6 8
103 6 8
104 -12 1
105 -12 1
106 -42 33
107 -42 33
108 -42 33
109 -42 33
110 -42 33
111 -42 33
112 25 5
113 25 5
114 25 5
115 25 5
116 -3 0
117 -3 0
118 -3 0
119 -3 0
120 -3 0
121 29 -12
122 29 -12
123 29 -12
124 29 -12
125 29 -12
126 29 -12
127 -14 43
128 -14 43
129 -11 -45
130 -11 -45
131 -11 -45
132 -16 32
133 -16 32
134 -16 32
135 -16 32
136 -16 32
137 -16 32
138 -16 32
139 37 -29
140 37 -29
141 37 -29
142 37 -29
143 37 -29
144 37 -29
145 37 -29
146 -34 32
147 -34 32
148 -34 32
149 -34 32
150 -34 32
151 -34 32
152 -18 -47
153 -18 -47
154 -18 -47
155 -18 -47
156 23 -21
157 23 -21
158 13 44
159 13 44
160 13 44
161 -6 -49
162 -6 -49
163 -6 -49
164 -6 -49
165 50 3
166 50 3
167 50 3
168 50 3
169 50 3
170 17 -37
171 17 -37
172 17 -37
173 17 -37
174 17 -37
175 8 1
176 8 1
177 8 1
178 8 1
179 8 1
180 8 1
181 48 38
182 48 38
183 48 38
184 -50 -48
185 -50 -48
186 -50 -48
187 4 -44
188 4 -44
189 4 -44
190 4 -44
191 4 -44
192 4 -44
193 14 -25
194 14 -25
195 14 -25
196 14 -25
197 24 -46
198 24 -46
199 24 -46
200 24 -46
201 24 -46
202 24 -46
203 -25 -2
204 -25 -2
205 -25 -2
206 -25 -2
207 -25 -2
208 -25 -2
209 25 48
210 25 48
211 25 48
212 25 48
213 25 48
214 25 48
215 -13 -18
216 -13 -18
217 -13 -18
218 -13 -18
219 -13 -18
220 20 -33
221 20 -33
222 20 -33
223 20 -33
224 20 -33
225 -6 7
226 -6 7
227 -6 7
228 -6 7
229 21 28
230 21 28
231 38 -3
232 38 -3
233 38 -3
234 38 -3
235 38 -3
236 38 -3
237 38 -3
238 -1 5
239 -1 5
240 -1 5
241 -1 5
242 -18 -6
243 -18 -6
244 -18 -6
245 -18 -6
246 -18 -6
247 -18 -6
248 -18 -6
249 1 -24
250 1 -24
251 1 -24
252 1 -24
253 1 -24
254 1 -24
255 -43 28
256 -43 28
257 -43 28
258 -43 28
259 -43 28
260 -43 28
261 -43 28
262 -1 25
263 -1 25
264 -1 25
265 -1 25
266 -1 25
267 -1 25
268 -1 25
269 44 38
270 44 38
271 44 38
272 44 38
273 44 38
274 29 -19
275 29 -19
276 29 -19
277 49 -15
278 49 -15
279 49 -15
280 49 -15
281 49 -15
282 49 -15
283 -39 9
284 -39 9
285 -39 9
286 26 39
287 26 39
288 26 39
289 26 39
290 26 39
291 26 39
292 26 39
293 -7 45
294 -7 45
295 -7 45
296 -7 45
297 -7 45
298 -49 -26
299 -49 -26
300 -49 -26
301 -49 -26
302 43 -13
303 43 -13
304 12 22
305 15 40
306 15 40
307 15 40
308 15 40
309 15 40
310 15 40
311 12 3
312 12 3
313 12 3
314 12 3
315 30 11
316 30 11
317 30 11
318 30 11
319 30 11
320 30 11
321 30 11
322 45 -19
323 45 -19
324 45 -19
325 45 -19
326 45 -19
327 45 -19
328 2 33
329 2 33
330 35 -42
331 35 -42
332 35 -42
333 35 -42
334 35 -42
335 -41 0
336 -41 0
337 -41 0
338 -41 0
339 13 50
340 -15 -33
341 -15 -33
342 -15 -33
343 -15 -33
344 -15 -33
345 -15 -33
346 -3 42
347 -3 42
348 -3 42
349 -3 42
350 -3 42
351 -3 42
352 17 -45
353 17 -45
DEMAND_SECTION
1 0
2 280
3 140
4 70
5 14
6 14
7 12
8 280
9 70
10 14
11 14
12 14
13 14
14 4
15 280
16 140
17 70
18 14
19 14
20 14
21 14
22 4
23 280
24 10
25 280
26 280
27 70
28 14
29 14
30 2
31 280
32 280
33 14
34 14
35 14
36 8
37 280
38 280
39 70
40 10
41 280
42 280
43 70
44 14
45 14
46 2
47 280
48 280
49 140
50 70
51 14
52 14
53 14
54 8
55 140
56 70
57 14
58 6
59 280
60 70
61 14
62 6
63 280
64 70
65 14
66 14
67 14
68 14
69 4
70 280
71 280
72 280
73 140
74 70
75 280
76 280
77 14
78 6
79 280
80 280
81 14
82 14
83 12
84 280
85 140
86 14
87 14
88 14
89 8
90 280
91 70
92 14
93 6
94 280
95 140
96 70
97 14
98 14
99 14
100 14
101 4
102 280
103 280
104 280
105 10
106 140
107 14
108 14
109 14
110 14
111 4
112 140
113 70
114 14
115 6
116 140
117 70
118 14
119 14
120 12
121 140
122 14
123 14
124 14
125 14
126 4
127 280
128 70
129 280
130 14
131 6
132 280
133 280
134 14
135 14
136 14
137 14
138 4
139 280
140 140
141 70
142 14
143 14
144 14
145 8
146 280
147 14
148 14
149 14
150 14
151 4
152 140
153 14
154 14
155 2
156 280
157 140
158 280
159 140
160 70
161 280
162 140
163 14
164 6
165 280
166 140
167 70
168 14
169 6
170 280
171 140
172 14
173 14
174 12
175 280
176 140
177 70
178 14
179 14
180 12
181 280
182 280
183 10
184 280
185 140
186 70
187 280
188 280
189 14
190 14
191 14
192 8
193 280
194 140
195 70
196 10
197 280
198 280
199 70
200 14
201 14
202 12
203 140
204 14
205 14
206 14
207 14
208 4
209 280
210 140
211 70
212 14
213 14
214 2
215 140
216 70
217 14
218 14
219 2
220 140
221 70
222 14
223 14
224 12
225 280
226 280
227 14
228 6
229 280
230 280
231 280
232 140
233 14
234 14
235 14
236 14
237 4
238 140
239 70
240 14
241 6
242 280
243 280
244 70
245 14
246 14
247 14
248 8
249 280
250 140
251 70
252 14
253 14
254 12
255 280
256 280
257 70
258 14
259 14
260 14
261 8
262 140
263 70
264 14
265 14
266 14
267 14
268 4
269 280
270 14
271 14
272 14
273 8
274 280
275 140
276 10
277 280
278 70
279 14
280 14
281 14
282 8
283 280
284 140
285 70
286 280
287 70
288 14
289 14
290 14
291 14
292 4
293 140
294 14
295 14
296 14
297 8
298 140
299 14
300 14
301 12
302 280
303 140
304 280
305 280
306 14
307 14
308 14
309 14
310 4
311 280
312 140
313 70
314 10
315 280
316 280
317 70
318 14
319 14
320 14
321 8
322 280
323 14
324 14
325 14
326 14
327 4
328 280
329 70
330 140
331 14
332 14
333 14
334 8
335 280
336 140
337 14
338 6
339 280
340 280
341 280
342 14
343 14
344 14
345 8
346 280
347 14
348 14
349 14
350 14
351 4
352 280
353 10
DEPOT_SECTION
1
-1
EOF