SDVRP instances/custom_instances/p02_18_splitx10_0.sol
352 -12 7 8 13 10 11 9 131 132 136 134 135 133 137 46 -18 20 14 19 15 16 17 21 140 138 142 139 143 144 141 273 275 -33 35 31 32 30 34 330 329 332 331 333 173 170 172 169 171 -45 43 41 40 42 44 310 313 311 174 -50 47 52 49 51 48 53 156 155 192 195 193 -54 228 288 286 78 81 82 79 80 268 -57 55 56 303 327 328 96 100 93 97 98 99 94 95 262 263 266 267 -60 58 59 61 89 314 320 319 317 318 316 315 312 -65 63 66 64 62 67 68 103 104 241 243 246 245 247 244 242 -92 91 90 37 36 39 38 180 181 182 270 271 272 269 -101 102 -110 106 109 107 105 108 259 260 257 258 255 256 254 22 23 284 283 -116 -117 115 118 -119 -129 128 130 163 160 161 162 187 189 186 190 191 188 -149 147 148 146 150 145 127 126 295 294 292 296 293 345 347 350 346 348 349 265 264 261 -153 152 154 151 183 184 185 69 70 297 299 300 298 -158 157 159 338 309 306 308 307 305 304 229 -177 175 178 111 112 113 114 164 165 167 168 166 233 230 231 234 235 232 236 -179 176 122 124 125 121 123 120 302 301 73 71 72 274 -194 221 222 219 220 223 201 197 199 200 196 198 352 351 -204 205 206 207 203 202 336 335 334 337 85 83 84 86 88 87 282 -211 208 209 210 212 213 2 4 3 5 1 6 285 290 291 287 289 -218 217 216 215 214 339 344 343 342 340 341 248 250 249 253 251 252 -226 227 225 224 76 77 75 74 237 240 239 238 -279 278 281 277 280 276 29 24 27 25 28 26 321 325 322 324 323 326 0 





OBJ=
2259.758
BEST_KNOWN=
0.000